50
1000
295
295
292
288
280
279
274
266
255
253
252
249
246
242
225
223
217
212
210
209
203
200
190
188
173
172
171
165
164
163
158
157
153
147
146
144
143
143
141
141
139
138
134
121
120
114
108
105
104
103
